%chk=PhNH2.chk
%mem=50GB
%nprocs=24
#p opt=tight freq=noraman pbe1pbe/def2TZVP gfinput pop=nboread formcheck int=ultrafine

PhNH2

0 1
 C                 -0.24434280   -0.13405768   -1.18354263
 H                 -0.79819950   -0.23695270   -2.09324333
 C                  1.15653092   -0.11174084   -1.21479531
 H                  1.67227240   -0.19759645   -2.14835813
 C                  1.88192791    0.02302279   -0.02334244
 H                  2.95152609    0.04006220   -0.04720456
 C                  1.20645118    0.13546957    1.19936311
 H                  1.76030788    0.23836459    2.10906381
 C                 -0.19442254    0.11315273    1.23061579
 H                 -0.71016402    0.19900834    2.16417861
 C                 -0.91981953   -0.02161090    0.03916292
 N                 -2.38926749   -0.04502018    0.07194546
 H                 -2.74065095   -0.14637425   -0.85878392
 H                 -2.69733200   -0.84826354    0.58174595

 $nbo archive filename=PhNH2 BNDIDX SKIPBO $end


