%chk=C2H6.chk
%nprocs=4
#p opt freq=noraman b3lyp/6-31g* gfinput pop=(full,nboread) formcheck

Title Card Required

0 1
 C                 -1.45077723    3.42487042    0.00000000
 H                 -1.09410439    3.92926861    0.87365150
 H                 -1.09410439    3.92926861   -0.87365150
 H                 -2.52077723    3.42488360    0.00000000
 C                 -0.93746152    1.97293826    0.00000000
 H                 -1.29413516    1.46853979   -0.87365101
 H                  0.13253848    1.97292562   -0.00000060
 H                 -1.29413362    1.46853980    0.87365165
 
 $nbo archive filename=C2H6 $end

