%chk=C2H4.chk
#p pbe1pbe/6-31G gfinput pop=nboread formcheck int=ultrafine

C2H4

0 1
 C                 -1.96016769    0.91194968    0.00000000
 H                 -1.42700394   -0.01575524    0.00000000
 H                 -3.03016769    0.91194968    0.00000000
 C                 -1.28489338    2.08692698    0.00000000
 H                 -1.81805712    3.01463190   -0.00000000
 H                 -0.21489338    2.08692698   -0.00000000

 $nbo archive filename=C2H4 BNDIDX SKIPBO $end


